(declare-const a Real)
(declare-const b Real)
(declare-const c Real)
(assert (= (* a b c) 1))
(assert (> a 0))
(assert (> b 0))
(assert (> c 0))
(assert (not (<= (+ (* (/ -64 992906837387947) (pow (+ (* (/ 86899 8) a) (* (/ 112627 8) b)) 4)) (* -27648 (pow a (pow 3 -1)) (pow b (/ 11 3))) (* -13824 (pow a (/ 10 3)) (pow b (/ 2 3))) (* (/ 17343 4) (pow a 2) (pow b 2)) (* (/ 27997 2) b (pow a 3)) (* (/ 96157 2) a (pow b 3))) 0)))
(check-sat)
(get-model)
(exit)